113	22	4	89	
10	10	10	10

0	0	0	0	0	0	2	1	2
1	2	8	7	4	4	1	3
2	0	0	5	7	9	3	4	7	19
3	1	5	0	3	5	3	4	7	19
4	2	0	4	0	8	2	5	8
5	9	0	5	7	7	1	6
6	9	3	7	4	1	1	10
7	4	10	7	6	3	1	8
8	2	9	2	10	7	2	9	12
9	0	6	0	7	7	2	13	18
10	6	7	8	0	9	2	11	18
11	6	0	9	0	1	1	12
12	0	4	0	1	6	2	13	20
13	2	10	3	9	3	1	14
14	8	9	3	0	6	1	15
15	7	3	6	0	3	1	16
16	10	1	4	9	8	1	17
17	5	1	7	8	10	1	21
18	6	7	0	5	4	1	21
19	4	0	0	1	7	1	21
20	0	0	7	4	5	1	21
21	0	0	0	0	0	0
